[[2, 4, 68, 6, 51, 17, 75, 76, 26, 67, 7, 46, 34, 8, 52, 27, 13, 54, 19, 35, 53, 14], [59, 11, 66, 65, 38, 10, 31, 58, 72, 39, 12, 40, 32, 9], [25, 55, 18, 50, 44, 3, 24, 49, 16, 33, 63, 23], [56, 41, 43, 42, 64, 22, 73, 62, 28, 74], [61, 21, 47, 69, 36, 71, 60, 70, 20, 37, 15, 57, 5, 29, 48, 30, 45]]